N = 11;
H = 5;
T = 2;

avail = array3d(1..N, 1..H, 1..T, [9, 8, 1, 2, 1, 1, 8, 8, 10, 0, 6, 3, 10, 3, 10, 3, 4, 6, 8, 9, 2, 6, 10, 9, 9, 3, 7, 8, 9, 8, 10, 1, 5, 6, 3, 9, 5, 7, 1, 8, 3, 10, 3, 3, 10, 6, 2, 8, 6, 8, 5, 7, 1, 2, 4, 4, 5, 3, 10, 5, 0, 5, 3, 3, 7, 5, 7, 6, 6, 6, 4, 3, 6, 10, 3, 1, 1, 5, 6, 8, 1, 3, 9, 6, 2, 8, 6, 2, 9, 5, 1, 5, 1, 5, 10, 6, 6, 8, 8, 9, 1, 1, 7, 1, 8, 2, 1, 7, 10, 2]);

r = array2d(1..H, 1..T, [4, 0, 1, 2, 6, 3, 3, 6, 2, 4]);
